2023/05/23
Julia is now 1.9.0
previous version was 1.7.2
2023/11/29
gurobi is now 11.0.0
previous version was 10.0.2
solving instance uflp nldep holmberg 12 square
presolving:
(round 1, fast)       20 del vars, 510 del conss, 0 add conss, 10 chg bounds, 0 chg sides, 0 chg coeffs, 0 upgd conss, 0 impls, 0 clqs
   (0.3s) symmetry computation started: requiring (bin +, int +, cont +), (fixed: bin -, int -, cont -)
   (0.3s) no symmetry present
presolving (2 rounds: 2 fast, 1 medium, 1 exhaustive):
 20 deleted vars, 510 deleted constraints, 0 added constraints, 10 tightened bounds, 0 added holes, 0 changed sides, 0 changed coefficients
 0 implications, 0 cliques
presolved problem has 510 variables (0 bin, 0 int, 0 impl, 510 cont) and 60 constraints
     50 constraints of type <linear>
     10 constraints of type <nonlinear>
Presolving Time: 0.31

 time | node  | left  |LP iter|LP it/n|mem/heur|mdpt |vars |cons |rows |cuts |sepa|confs|strbr|  dualbound   | primalbound  |  gap   | compl. 
  0.4s|     1 |     0 |    61 |     - |    45M |   0 | 520 |  60 | 100 |   0 |  0 |   0 |   0 | 4.801135e+03 |      --      |    Inf | unknown
L 0.8s|     1 |     0 |    61 |     - |undercov|   0 | 520 |  60 | 100 |   0 |  0 |   0 |   0 | 4.801135e+03 | 4.806977e+03 |   0.12%| unknown
L 1.3s|     1 |     0 |    61 |     - |undercov|   0 | 520 |  60 | 100 |   0 |  0 |   0 |   0 | 4.801135e+03 | 4.806976e+03 |   0.12%| unknown
  1.6s|     1 |     0 |    71 |     - |    48M |   0 | 520 |  60 | 110 |  10 |  1 |   0 |   0 | 4.806976e+03 | 4.806976e+03 |   0.00%| unknown
  1.6s|     1 |     0 |    71 |     - |    48M |   0 | 520 |  60 | 110 |  10 |  1 |   0 |   0 | 4.806976e+03 | 4.806976e+03 |   0.00%| unknown

SCIP Status        : problem is solved [optimal solution found]
Solving Time (sec) : 1.57
Solving Nodes      : 1
Primal Bound       : +4.80697609530857e+03 (2 solutions)
Dual Bound         : +4.80697609530857e+03
Gap                : 0.00 %
reading holmberg data file ../../../../../instances/uflp/holmberg/p12
primal_bound = 4806.976095308573, dual_bound = 4806.976095308573, gap = 0.0, time = 4.12
